50
1 3719 9006
2 3935 2765
3 3681 6939
4 4250 1685
5 4720 745
6 1281 7154
7 4614 3140
8 29 1718
9 7305 2229
10 7218 5533
11 8829 9130
12 3772 6170
13 5183 5440
14 5867 5347
15 5811 6068
16 5472 7761
17 561 7115
18 9256 5488
19 6731 8623
20 9369 8254
21 6227 1883
22 8987 5762
23 7723 6200
24 8281 7322
25 8956 345
26 919 5146
27 3418 4035
28 791 4657
29 408 7634
30 1639 2222
31 120 296
32 1004 7027
33 2566 4151
34 8565 553
35 4758 449
36 1161 3045
37 9595 2318
38 8003 1145
39 9017 6398
40 655 2877
41 6557 1039
42 7285 8784
43 2028 737
44 4694 2282
45 7145 648
46 1012 548
47 7147 9618
48 3655 4970
49 5054 7258
50 3085 1407
